
Gurobi 9.5.0 (win64) logging started Mon Jun  6 19:48:05 2022

Set parameter LogFile to value "../results/logs/log_soc-dolphins_3_1_2022_06_06_19_48.log"
Set parameter LazyConstraints to value 1
Gurobi Optimizer version 9.5.0 build v9.5.0rc5 (win64)
Thread count: 6 physical cores, 12 logical processors, using up to 12 threads
Optimize a model with 1329 rows, 87 columns and 4104 nonzeros
Model fingerprint: 0x2a489925
Variable types: 0 continuous, 87 integer (87 binary)
Coefficient statistics:
  Matrix range     [1e+00, 3e+00]
  Objective range  [1e+00, 1e+00]
  Bounds range     [1e+00, 1e+00]
  RHS range        [1e+00, 1e+00]
Found heuristic solution: objective -0.0000000
Presolve removed 1290 rows and 35 columns
Presolve time: 0.01s
Presolved: 39 rows, 52 columns, 474 nonzeros
Variable types: 0 continuous, 52 integer (52 binary)

Root relaxation: objective 8.000000e+00, 1 iterations, 0.00 seconds (0.00 work units)

    Nodes    |    Current Node    |     Objective Bounds      |     Work
 Expl Unexpl |  Obj  Depth IntInf | Incumbent    BestBd   Gap | It/Node Time

*    0     0               0       8.0000000    8.00000  0.00%     -    0s

Explored 1 nodes (1 simplex iterations) in 0.01 seconds (0.01 work units)
Thread count was 12 (of 12 available processors)

Solution count 2: 8 -0 

Optimal solution found (tolerance 0.00e+00)
Best objective 8.000000000000e+00, best bound 8.000000000000e+00, gap 0.0000%

User-callback calls 342, time in user-callback 0.00 sec

Gurobi 9.5.0 (win64) logging started Mon Jun  6 19:48:05 2022

Set parameter LogFile to value "../results/logs/log_soc-dolphins_3_1_2022_06_06_19_48.log"
Set parameter LazyConstraints to value 1
Gurobi Optimizer version 9.5.0 build v9.5.0rc5 (win64)
Thread count: 6 physical cores, 12 logical processors, using up to 12 threads
Optimize a model with 3011 rows, 928 columns and 9991 nonzeros
Model fingerprint: 0x0f84ac4f
Variable types: 0 continuous, 928 integer (928 binary)
Coefficient statistics:
  Matrix range     [1e+00, 3e+00]
  Objective range  [1e+00, 1e+00]
  Bounds range     [1e+00, 1e+00]
  RHS range        [1e+00, 1e+00]
Found heuristic solution: objective -0.0000000
Presolve removed 1934 rows and 31 columns
Presolve time: 0.04s
Presolved: 1077 rows, 897 columns, 3515 nonzeros
Variable types: 0 continuous, 897 integer (897 binary)

Root relaxation: objective 1.033333e+01, 105 iterations, 0.00 seconds (0.00 work units)

    Nodes    |    Current Node    |     Objective Bounds      |     Work
 Expl Unexpl |  Obj  Depth IntInf | Incumbent    BestBd   Gap | It/Node Time

     0     0   10.33333    0    4   -0.00000   10.33333      -     -    0s
H    0     0                       8.0000000   10.33333  29.2%     -    0s
     0     0     cutoff    0         8.00000    8.00000  0.00%     -    0s

Cutting planes:
  Gomory: 1
  Cover: 1
  Implied bound: 1
  Clique: 4
  Zero half: 3

Explored 1 nodes (109 simplex iterations) in 0.06 seconds (0.05 work units)
Thread count was 12 (of 12 available processors)

Solution count 2: 8 -0 

Optimal solution found (tolerance 0.00e+00)
Best objective 8.000000000000e+00, best bound 8.000000000000e+00, gap 0.0000%

User-callback calls 387, time in user-callback 0.00 sec

Gurobi 9.5.0 (win64) logging started Mon Jun  6 19:48:12 2022

Set parameter LogFile to value "../results/logs/log_soc-dolphins_3_1_2022_06_06_19_48.log"
Set parameter LazyConstraints to value 1
Gurobi Optimizer version 9.5.0 build v9.5.0rc5 (win64)
Thread count: 6 physical cores, 12 logical processors, using up to 12 threads
Optimize a model with 2247 rows, 117 columns and 6972 nonzeros
Model fingerprint: 0x1afdaabc
Variable types: 0 continuous, 117 integer (117 binary)
Coefficient statistics:
  Matrix range     [1e+00, 3e+00]
  Objective range  [1e+00, 1e+00]
  Bounds range     [1e+00, 1e+00]
  RHS range        [1e+00, 1e+00]
Found heuristic solution: objective -0.0000000
Presolve removed 2144 rows and 13 columns
Presolve time: 0.01s
Presolved: 103 rows, 104 columns, 1471 nonzeros
Variable types: 0 continuous, 104 integer (104 binary)

Root relaxation: objective 1.650000e+01, 31 iterations, 0.00 seconds (0.00 work units)

    Nodes    |    Current Node    |     Objective Bounds      |     Work
 Expl Unexpl |  Obj  Depth IntInf | Incumbent    BestBd   Gap | It/Node Time

     0     0   16.50000    0   11   -0.00000   16.50000      -     -    0s
     0     0   15.61905    0   34   -0.00000   15.61905      -     -    0s
H    0     0                      12.0000000   15.61905  30.2%     -    0s
     0     0   14.69231    0   34   12.00000   14.69231  22.4%     -    0s
     0     0   14.60000    0   29   12.00000   14.60000  21.7%     -    0s
     0     0   14.20000    0   35   12.00000   14.20000  18.3%     -    0s
H    0     0                      13.0000000   14.20000  9.23%     -    0s
     0     0     cutoff    0        13.00000   13.00000  0.00%     -    0s

Cutting planes:
  Gomory: 1
  Cover: 2
  Clique: 4
  MIR: 6
  GUB cover: 2
  Zero half: 3
  Mod-K: 1
  RLT: 1
  Lazy constraints: 78

Explored 1 nodes (98 simplex iterations) in 0.06 seconds (0.03 work units)
Thread count was 12 (of 12 available processors)

Solution count 3: 13 12 -0 

Optimal solution found (tolerance 0.00e+00)
Best objective 1.300000000000e+01, best bound 1.300000000000e+01, gap 0.0000%

User-callback calls 295, time in user-callback 0.01 sec

Gurobi 9.5.0 (win64) logging started Mon Jun  6 19:48:12 2022

Set parameter LogFile to value "../results/logs/log_soc-dolphins_3_1_2022_06_06_19_48.log"
Set parameter LazyConstraints to value 1
Gurobi Optimizer version 9.5.0 build v9.5.0rc5 (win64)
Thread count: 6 physical cores, 12 logical processors, using up to 12 threads
Optimize a model with 5289 rows, 1638 columns and 17619 nonzeros
Model fingerprint: 0x5d58237c
Variable types: 0 continuous, 1638 integer (1638 binary)
Coefficient statistics:
  Matrix range     [1e+00, 3e+00]
  Objective range  [1e+00, 1e+00]
  Bounds range     [1e+00, 1e+00]
  RHS range        [1e+00, 1e+00]
Found heuristic solution: objective -0.0000000
Presolve removed 3212 rows and 15 columns
Presolve time: 0.04s
Presolved: 2077 rows, 1623 columns, 7347 nonzeros
Variable types: 0 continuous, 1623 integer (1623 binary)

Root relaxation: objective 1.650000e+01, 169 iterations, 0.00 seconds (0.00 work units)

    Nodes    |    Current Node    |     Objective Bounds      |     Work
 Expl Unexpl |  Obj  Depth IntInf | Incumbent    BestBd   Gap | It/Node Time

     0     0   16.50000    0   11   -0.00000   16.50000      -     -    0s
H    0     0                      10.0000000   16.50000  65.0%     -    0s
H    0     0                      13.0000000   16.50000  26.9%     -    0s
H    0     0                      14.0000000   16.50000  17.9%     -    0s
     0     0   15.00000    0    4   14.00000   15.00000  7.14%     -    0s
H    0     0                      15.0000000   15.00000  0.00%     -    0s
     0     0   15.00000    0    4   15.00000   15.00000  0.00%     -    0s

Cutting planes:
  Gomory: 1
  Cover: 2
  Zero half: 5

Explored 1 nodes (394 simplex iterations) in 0.10 seconds (0.08 work units)
Thread count was 12 (of 12 available processors)

Solution count 5: 15 14 13 ... -0

Optimal solution found (tolerance 0.00e+00)
Best objective 1.500000000000e+01, best bound 1.500000000000e+01, gap 0.0000%

User-callback calls 313, time in user-callback 0.00 sec

Gurobi 9.5.0 (win64) logging started Mon Jun  6 19:48:18 2022

Set parameter LogFile to value "../results/logs/log_soc-dolphins_3_1_2022_06_06_19_48.log"
Set parameter LazyConstraints to value 1
Gurobi Optimizer version 9.5.0 build v9.5.0rc5 (win64)
Thread count: 6 physical cores, 12 logical processors, using up to 12 threads
Optimize a model with 1352 rows, 90 columns and 4204 nonzeros
Model fingerprint: 0x2c26bcc5
Variable types: 0 continuous, 90 integer (90 binary)
Coefficient statistics:
  Matrix range     [1e+00, 3e+00]
  Objective range  [1e+00, 1e+00]
  Bounds range     [1e+00, 1e+00]
  RHS range        [1e+00, 1e+00]
Found heuristic solution: objective -0.0000000
Presolve removed 1301 rows and 29 columns
Presolve time: 0.01s
Presolved: 51 rows, 61 columns, 606 nonzeros
Variable types: 0 continuous, 61 integer (61 binary)

Root relaxation: objective 1.200000e+01, 4 iterations, 0.00 seconds (0.00 work units)

    Nodes    |    Current Node    |     Objective Bounds      |     Work
 Expl Unexpl |  Obj  Depth IntInf | Incumbent    BestBd   Gap | It/Node Time

*    0     0               0      12.0000000   12.00000  0.00%     -    0s

Explored 1 nodes (4 simplex iterations) in 0.01 seconds (0.01 work units)
Thread count was 12 (of 12 available processors)

Solution count 2: 12 -0 

Optimal solution found (tolerance 0.00e+00)
Best objective 1.200000000000e+01, best bound 1.200000000000e+01, gap 0.0000%

User-callback calls 351, time in user-callback 0.00 sec

Gurobi 9.5.0 (win64) logging started Mon Jun  6 19:48:18 2022

Set parameter LogFile to value "../results/logs/log_soc-dolphins_3_1_2022_06_06_19_48.log"
Set parameter LazyConstraints to value 1
Gurobi Optimizer version 9.5.0 build v9.5.0rc5 (win64)
Thread count: 6 physical cores, 12 logical processors, using up to 12 threads
Optimize a model with 3152 rows, 990 columns and 10504 nonzeros
Model fingerprint: 0x6650b411
Variable types: 0 continuous, 990 integer (990 binary)
Coefficient statistics:
  Matrix range     [1e+00, 3e+00]
  Objective range  [1e+00, 1e+00]
  Bounds range     [1e+00, 1e+00]
  RHS range        [1e+00, 1e+00]
Found heuristic solution: objective -0.0000000
Presolve removed 1950 rows and 25 columns
Presolve time: 0.05s
Presolved: 1202 rows, 965 columns, 3993 nonzeros
Variable types: 0 continuous, 965 integer (965 binary)

Root relaxation: objective 1.200000e+01, 58 iterations, 0.00 seconds (0.00 work units)

    Nodes    |    Current Node    |     Objective Bounds      |     Work
 Expl Unexpl |  Obj  Depth IntInf | Incumbent    BestBd   Gap | It/Node Time

*    0     0               0      12.0000000   12.00000  0.00%     -    0s

Explored 1 nodes (58 simplex iterations) in 0.05 seconds (0.05 work units)
Thread count was 12 (of 12 available processors)

Solution count 2: 12 -0 

Optimal solution found (tolerance 0.00e+00)
Best objective 1.200000000000e+01, best bound 1.200000000000e+01, gap 0.0000%

User-callback calls 370, time in user-callback 0.00 sec

Gurobi 9.5.0 (win64) logging started Mon Jun  6 19:48:26 2022

Set parameter LogFile to value "../results/logs/log_soc-dolphins_3_1_2022_06_06_19_48.log"
Set parameter LazyConstraints to value 1
Gurobi Optimizer version 9.5.0 build v9.5.0rc5 (win64)
Thread count: 6 physical cores, 12 logical processors, using up to 12 threads
Optimize a model with 2247 rows, 117 columns and 6972 nonzeros
Model fingerprint: 0x844d7da9
Variable types: 0 continuous, 117 integer (117 binary)
Coefficient statistics:
  Matrix range     [1e+00, 3e+00]
  Objective range  [1e+00, 1e+00]
  Bounds range     [1e+00, 1e+00]
  RHS range        [1e+00, 1e+00]
Found heuristic solution: objective -0.0000000
Presolve removed 2144 rows and 13 columns
Presolve time: 0.01s
Presolved: 103 rows, 104 columns, 1471 nonzeros
Variable types: 0 continuous, 104 integer (104 binary)

Root relaxation: objective 1.650000e+01, 34 iterations, 0.00 seconds (0.00 work units)

    Nodes    |    Current Node    |     Objective Bounds      |     Work
 Expl Unexpl |  Obj  Depth IntInf | Incumbent    BestBd   Gap | It/Node Time

     0     0   16.50000    0   11   -0.00000   16.50000      -     -    0s
H    0     0                       9.0000000   16.50000  83.3%     -    0s
H    0     0                      11.0000000   16.50000  50.0%     -    0s
     0     0   15.98649    0   33   11.00000   15.98649  45.3%     -    0s
H    0     0                      15.0000000   15.98649  6.58%     -    0s

Cutting planes:
  Gomory: 1
  Cover: 3

Explored 1 nodes (48 simplex iterations) in 0.02 seconds (0.01 work units)
Thread count was 12 (of 12 available processors)

Solution count 4: 15 11 9 -0 

Optimal solution found (tolerance 0.00e+00)
Best objective 1.500000000000e+01, best bound 1.500000000000e+01, gap 0.0000%

User-callback calls 258, time in user-callback 0.01 sec

Gurobi 9.5.0 (win64) logging started Mon Jun  6 19:48:26 2022

Set parameter LogFile to value "../results/logs/log_soc-dolphins_3_1_2022_06_06_19_48.log"
Set parameter LazyConstraints to value 1
Gurobi Optimizer version 9.5.0 build v9.5.0rc5 (win64)
Thread count: 6 physical cores, 12 logical processors, using up to 12 threads
Optimize a model with 5289 rows, 1638 columns and 17619 nonzeros
Model fingerprint: 0xdd5cae3b
Variable types: 0 continuous, 1638 integer (1638 binary)
Coefficient statistics:
  Matrix range     [1e+00, 3e+00]
  Objective range  [1e+00, 1e+00]
  Bounds range     [1e+00, 1e+00]
  RHS range        [1e+00, 1e+00]
Found heuristic solution: objective -0.0000000
Presolve removed 3212 rows and 15 columns
Presolve time: 0.04s
Presolved: 2077 rows, 1623 columns, 7347 nonzeros
Variable types: 0 continuous, 1623 integer (1623 binary)

Root relaxation: objective 1.650000e+01, 211 iterations, 0.01 seconds (0.01 work units)

    Nodes    |    Current Node    |     Objective Bounds      |     Work
 Expl Unexpl |  Obj  Depth IntInf | Incumbent    BestBd   Gap | It/Node Time

     0     0   16.50000    0   11   -0.00000   16.50000      -     -    0s
H    0     0                      10.0000000   16.50000  65.0%     -    0s
H    0     0                      11.0000000   16.50000  50.0%     -    0s
     0     0   15.97959    0   51   11.00000   15.97959  45.3%     -    0s
H    0     0                      15.0000000   15.97959  6.53%     -    0s
     0     0   15.97959    0   51   15.00000   15.97959  6.53%     -    0s

Cutting planes:
  Gomory: 1
  Cover: 2
  MIR: 3
  Zero half: 2

Explored 1 nodes (419 simplex iterations) in 0.11 seconds (0.08 work units)
Thread count was 12 (of 12 available processors)

Solution count 4: 15 11 10 -0 

Optimal solution found (tolerance 0.00e+00)
Best objective 1.500000000000e+01, best bound 1.500000000000e+01, gap 0.0000%

User-callback calls 313, time in user-callback 0.00 sec

Gurobi 9.5.0 (win64) logging started Mon Jun  6 19:48:36 2022

Set parameter LogFile to value "../results/logs/log_soc-dolphins_3_1_2022_06_06_19_48.log"
Set parameter LazyConstraints to value 1
Gurobi Optimizer version 9.5.0 build v9.5.0rc5 (win64)
Thread count: 6 physical cores, 12 logical processors, using up to 12 threads
Optimize a model with 3357 rows, 147 columns and 10448 nonzeros
Model fingerprint: 0x550b1693
Variable types: 0 continuous, 147 integer (147 binary)
Coefficient statistics:
  Matrix range     [1e+00, 3e+00]
  Objective range  [1e+00, 1e+00]
  Bounds range     [1e+00, 1e+00]
  RHS range        [1e+00, 1e+00]
Found heuristic solution: objective -0.0000000
Presolve removed 3223 rows and 15 columns
Presolve time: 0.02s
Presolved: 134 rows, 132 columns, 2041 nonzeros
Variable types: 0 continuous, 132 integer (132 binary)

Root relaxation: objective 2.600000e+01, 28 iterations, 0.00 seconds (0.00 work units)

    Nodes    |    Current Node    |     Objective Bounds      |     Work
 Expl Unexpl |  Obj  Depth IntInf | Incumbent    BestBd   Gap | It/Node Time

     0     0   26.00000    0   14   -0.00000   26.00000      -     -    0s
H    0     0                      25.0000000   26.00000  4.00%     -    0s
     0     0   26.00000    0   14   25.00000   26.00000  4.00%     -    0s

Explored 1 nodes (30 simplex iterations) in 0.03 seconds (0.02 work units)
Thread count was 12 (of 12 available processors)

Solution count 2: 25 -0 

Optimal solution found (tolerance 0.00e+00)
Best objective 2.500000000000e+01, best bound 2.500000000000e+01, gap 0.0000%

User-callback calls 247, time in user-callback 0.00 sec

Gurobi 9.5.0 (win64) logging started Mon Jun  6 19:48:36 2022

Set parameter LogFile to value "../results/logs/log_soc-dolphins_3_1_2022_06_06_19_48.log"
Set parameter LazyConstraints to value 1
Gurobi Optimizer version 9.5.0 build v9.5.0rc5 (win64)
Thread count: 6 physical cores, 12 logical processors, using up to 12 threads
Optimize a model with 8159 rows, 2548 columns and 27255 nonzeros
Model fingerprint: 0x6ae28518
Variable types: 0 continuous, 2548 integer (2548 binary)
Coefficient statistics:
  Matrix range     [1e+00, 3e+00]
  Objective range  [1e+00, 1e+00]
  Bounds range     [1e+00, 1e+00]
  RHS range        [1e+00, 1e+00]
Found heuristic solution: objective -0.0000000
Presolve removed 4832 rows and 18 columns
Presolve time: 0.07s
Presolved: 3327 rows, 2530 columns, 11710 nonzeros
Variable types: 0 continuous, 2530 integer (2530 binary)

Root relaxation: objective 2.600000e+01, 111 iterations, 0.00 seconds (0.00 work units)

    Nodes    |    Current Node    |     Objective Bounds      |     Work
 Expl Unexpl |  Obj  Depth IntInf | Incumbent    BestBd   Gap | It/Node Time

     0     0   26.00000    0   20   -0.00000   26.00000      -     -    0s
H    0     0                      25.0000000   26.00000  4.00%     -    0s
     0     0   26.00000    0   20   25.00000   26.00000  4.00%     -    0s

Explored 1 nodes (127 simplex iterations) in 0.10 seconds (0.09 work units)
Thread count was 12 (of 12 available processors)

Solution count 2: 25 -0 

Optimal solution found (tolerance 0.00e+00)
Best objective 2.500000000000e+01, best bound 2.500000000000e+01, gap 0.0000%

User-callback calls 281, time in user-callback 0.00 sec

Gurobi 9.5.0 (win64) logging started Mon Jun  6 19:48:47 2022

Set parameter LogFile to value "../results/logs/log_soc-dolphins_3_1_2022_06_06_19_48.log"
Set parameter LazyConstraints to value 1
Gurobi Optimizer version 9.5.0 build v9.5.0rc5 (win64)
Thread count: 6 physical cores, 12 logical processors, using up to 12 threads
Optimize a model with 5324 rows, 186 columns and 16540 nonzeros
Model fingerprint: 0xb1bcc690
Variable types: 0 continuous, 186 integer (186 binary)
Coefficient statistics:
  Matrix range     [1e+00, 3e+00]
  Objective range  [1e+00, 1e+00]
  Bounds range     [1e+00, 1e+00]
  RHS range        [1e+00, 1e+00]
Found heuristic solution: objective -0.0000000
Presolve removed 5130 rows and 15 columns
Presolve time: 0.05s
Presolved: 194 rows, 171 columns, 4332 nonzeros
Variable types: 0 continuous, 171 integer (171 binary)

Root relaxation: objective 3.400000e+01, 50 iterations, 0.00 seconds (0.00 work units)

    Nodes    |    Current Node    |     Objective Bounds      |     Work
 Expl Unexpl |  Obj  Depth IntInf | Incumbent    BestBd   Gap | It/Node Time

     0     0   34.00000    0    2   -0.00000   34.00000      -     -    0s
H    0     0                       5.0000000   34.00000   580%     -    0s
     0     0   31.13333    0   14    5.00000   31.13333   523%     -    0s
     0     0   29.75000    0    4    5.00000   29.75000   495%     -    0s
H    0     0                      20.0000000   29.75000  48.8%     -    0s
H    0     0                      22.0000000   29.75000  35.2%     -    0s
     0     0   28.00000    0    3   22.00000   28.00000  27.3%     -    0s
     0     0   25.22222    0   21   22.00000   25.22222  14.6%     -    0s
     0     0 infeasible    0        22.00000   22.00000  0.00%     -    0s

Explored 1 nodes (200 simplex iterations) in 0.19 seconds (0.09 work units)
Thread count was 12 (of 12 available processors)

Solution count 6: 22 20 18 ... -0

Optimal solution found (tolerance 0.00e+00)
Best objective 2.200000000000e+01, best bound 2.200000000000e+01, gap 0.0000%

User-callback calls 288, time in user-callback 0.05 sec

Gurobi 9.5.0 (win64) logging started Mon Jun  6 19:48:48 2022

Set parameter LogFile to value "../results/logs/log_soc-dolphins_3_1_2022_06_06_19_48.log"
Set parameter LazyConstraints to value 1
Gurobi Optimizer version 9.5.0 build v9.5.0rc5 (win64)
Thread count: 6 physical cores, 12 logical processors, using up to 12 threads
Optimize a model with 13012 rows, 4030 columns and 43448 nonzeros
Model fingerprint: 0x8ddd3d38
Variable types: 0 continuous, 4030 integer (4030 binary)
Coefficient statistics:
  Matrix range     [1e+00, 3e+00]
  Objective range  [1e+00, 1e+00]
  Bounds range     [1e+00, 1e+00]
  RHS range        [1e+00, 1e+00]
Found heuristic solution: objective -0.0000000
Presolve removed 7705 rows and 15 columns
Presolve time: 0.11s
Presolved: 5307 rows, 4015 columns, 19611 nonzeros
Variable types: 0 continuous, 4015 integer (4015 binary)

Root relaxation: objective 3.400000e+01, 222 iterations, 0.01 seconds (0.01 work units)

    Nodes    |    Current Node    |     Objective Bounds      |     Work
 Expl Unexpl |  Obj  Depth IntInf | Incumbent    BestBd   Gap | It/Node Time

     0     0   34.00000    0    4   -0.00000   34.00000      -     -    0s
*    0     0               0      33.0000000   33.00000  0.00%     -    0s

Cutting planes:
  Gomory: 2
  Cover: 2
  GUB cover: 1
  Lazy constraints: 32

Explored 1 nodes (243 simplex iterations) in 0.25 seconds (0.16 work units)
Thread count was 12 (of 12 available processors)

Solution count 2: 33 -0 

Optimal solution found (tolerance 0.00e+00)
Best objective 3.300000000000e+01, best bound 3.300000000000e+01, gap 0.0000%

User-callback calls 260, time in user-callback 0.07 sec

Gurobi 9.5.0 (win64) logging started Mon Jun  6 19:48:56 2022

Set parameter LogFile to value "../results/logs/log_soc-dolphins_3_1_2022_06_06_19_48.log"
Set parameter LazyConstraints to value 1
Gurobi Optimizer version 9.5.0 build v9.5.0rc5 (win64)
Thread count: 6 physical cores, 12 logical processors, using up to 12 threads
Optimize a model with 4812 rows, 174 columns and 14924 nonzeros
Model fingerprint: 0x25f7e8db
Variable types: 0 continuous, 174 integer (174 binary)
Coefficient statistics:
  Matrix range     [1e+00, 3e+00]
  Objective range  [1e+00, 1e+00]
  Bounds range     [1e+00, 1e+00]
  RHS range        [1e+00, 1e+00]
Found heuristic solution: objective -0.0000000
Presolve removed 4645 rows and 17 columns
Presolve time: 0.04s
Presolved: 167 rows, 157 columns, 3517 nonzeros
Variable types: 0 continuous, 157 integer (157 binary)

Root relaxation: objective 2.800000e+01, 45 iterations, 0.00 seconds (0.00 work units)

    Nodes    |    Current Node    |     Objective Bounds      |     Work
 Expl Unexpl |  Obj  Depth IntInf | Incumbent    BestBd   Gap | It/Node Time

*    0     0               0      28.0000000   28.00000  0.00%     -    0s

Explored 1 nodes (45 simplex iterations) in 0.04 seconds (0.03 work units)
Thread count was 12 (of 12 available processors)

Solution count 2: 28 -0 

Optimal solution found (tolerance 0.00e+00)
Best objective 2.800000000000e+01, best bound 2.800000000000e+01, gap 0.0000%

User-callback calls 222, time in user-callback 0.00 sec

Gurobi 9.5.0 (win64) logging started Mon Jun  6 19:48:56 2022

Set parameter LogFile to value "../results/logs/log_soc-dolphins_3_1_2022_06_06_19_48.log"
Set parameter LazyConstraints to value 1
Gurobi Optimizer version 9.5.0 build v9.5.0rc5 (win64)
Thread count: 6 physical cores, 12 logical processors, using up to 12 threads
Optimize a model with 11540 rows, 3538 columns and 38472 nonzeros
Model fingerprint: 0xf256971e
Variable types: 0 continuous, 3538 integer (3538 binary)
Coefficient statistics:
  Matrix range     [1e+00, 3e+00]
  Objective range  [1e+00, 1e+00]
  Bounds range     [1e+00, 1e+00]
  RHS range        [1e+00, 1e+00]
Found heuristic solution: objective -0.0000000
Presolve removed 6963 rows and 17 columns
Presolve time: 0.10s
Presolved: 4577 rows, 3521 columns, 16599 nonzeros
Variable types: 0 continuous, 3521 integer (3521 binary)

Root relaxation: objective 2.800000e+01, 191 iterations, 0.01 seconds (0.00 work units)

    Nodes    |    Current Node    |     Objective Bounds      |     Work
 Expl Unexpl |  Obj  Depth IntInf | Incumbent    BestBd   Gap | It/Node Time

*    0     0               0      28.0000000   28.00000  0.00%     -    0s

Explored 1 nodes (191 simplex iterations) in 0.12 seconds (0.12 work units)
Thread count was 12 (of 12 available processors)

Solution count 2: 28 -0 

Optimal solution found (tolerance 0.00e+00)
Best objective 2.800000000000e+01, best bound 2.800000000000e+01, gap 0.0000%

User-callback calls 234, time in user-callback 0.00 sec
